NAME          
ROWS
 N  OBJ
 L  c1
 L  c2
COLUMNS
    MARKER    'MARKER'                 'INTORG'
    x[1]      c1        789
    x[1]      c2        305
    x[1]      OBJ       -54
    x[2]      c1        349
    x[2]      c2        39
    x[2]      OBJ       -433
    x[3]      c1        130
    x[3]      c2        513
    x[3]      OBJ       -390
    x[4]      c1        705
    x[4]      c2        681
    x[4]      OBJ       -132
    x[5]      c1        138
    x[5]      c2        768
    x[5]      OBJ       -592
    x[6]      c1        124
    x[6]      c2        502
    x[6]      OBJ       -551
    x[7]      c1        104
    x[7]      c2        348
    x[7]      OBJ       -220
    x[8]      c1        674
    x[8]      c2        227
    x[8]      OBJ       -136
    x[9]      c1        915
    x[9]      c2        953
    x[9]      OBJ       -86
    x[10]     c1        777
    x[10]     c2        559
    x[10]     OBJ       -224
    x[11]     c1        549
    x[11]     c2        261
    x[11]     OBJ       -548
    x[12]     c1        191
    x[12]     c2        199
    x[12]     OBJ       -247
    x[13]     c1        480
    x[13]     c2        454
    x[13]     OBJ       -717
    x[14]     c1        759
    x[14]     c2        16
    x[14]     OBJ       -203
    x[15]     c1        945
    x[15]     c2        419
    x[15]     OBJ       -455
    x[16]     c1        90
    x[16]     c2        560
    x[16]     OBJ       -503
    x[17]     c1        416
    x[17]     c2        552
    x[17]     OBJ       -65
    x[18]     c1        211
    x[18]     c2        839
    x[18]     OBJ       -529
    x[19]     c1        600
    x[19]     c2        706
    x[19]     OBJ       -350
    x[20]     c1        340
    x[20]     c2        118
    x[20]     OBJ       -198
    x[21]     c1        590
    x[21]     c2        644
    x[21]     OBJ       -684
    x[22]     c1        769
    x[22]     c2        339
    x[22]     OBJ       -841
    x[23]     c1        403
    x[23]     c2        307
    x[23]     OBJ       -781
    x[24]     c1        806
    x[24]     c2        30
    x[24]     OBJ       -41
    x[25]     c1        898
    x[25]     c2        7
    x[25]     OBJ       -957
RHS
    rhs       c1        6376
    rhs       c2        5173
RANGES
BOUNDS
 BV bounds    x[1]
 BV bounds    x[2]
 BV bounds    x[3]
 BV bounds    x[4]
 BV bounds    x[5]
 BV bounds    x[6]
 BV bounds    x[7]
 BV bounds    x[8]
 BV bounds    x[9]
 BV bounds    x[10]
 BV bounds    x[11]
 BV bounds    x[12]
 BV bounds    x[13]
 BV bounds    x[14]
 BV bounds    x[15]
 BV bounds    x[16]
 BV bounds    x[17]
 BV bounds    x[18]
 BV bounds    x[19]
 BV bounds    x[20]
 BV bounds    x[21]
 BV bounds    x[22]
 BV bounds    x[23]
 BV bounds    x[24]
 BV bounds    x[25]
ENDATA
